unknown
(model
; cardinality of BoundSet is 2
(declare-sort BoundSet 0)
; rep: @uc_BoundSet_0
; rep: @uc_BoundSet_1
(declare-sort UnboundSet 0)
(define-fun IsSittingIn ((BOUND_VARIABLE_434 BoundSet) (BOUND_VARIABLE_435 BoundSet)) Bool true)
(define-fun IsInBarberShop ((BOUND_VARIABLE_434 BoundSet) (BOUND_VARIABLE_435 BoundSet)) Bool true)
(define-fun IsReading ((BOUND_VARIABLE_434 BoundSet) (BOUND_VARIABLE_435 BoundSet)) Bool false)
)
sat
(model
; cardinality of BoundSet is 1
(declare-sort BoundSet 0)
; rep: @uc_BoundSet_0
(declare-sort UnboundSet 0)
(define-fun IsSittingIn ((BOUND_VARIABLE_470 BoundSet) (BOUND_VARIABLE_471 BoundSet)) Bool true)
(define-fun IsInBarberShop ((BOUND_VARIABLE_470 BoundSet) (BOUND_VARIABLE_471 BoundSet)) Bool true)
(define-fun IsReading ((BOUND_VARIABLE_470 BoundSet) (BOUND_VARIABLE_471 BoundSet)) Bool false)
)
